(set-logic LIA)
(declare-fun pos_x0 () Int)
(declare-fun pos_x1 () Int)
(declare-fun pos_x2 () Int)
(declare-fun pos_x3 () Int)
(declare-fun pos_x4 () Int)
(declare-fun pos_x5 () Int)
(declare-fun pos_x6 () Int)
(declare-fun pos_x7 () Int)
(declare-fun pos_x8 () Int)
(declare-fun pos_x9 () Int)
(declare-fun pos_y0 () Int)
(declare-fun pos_y1 () Int)
(declare-fun pos_y2 () Int)
(declare-fun pos_y3 () Int)
(declare-fun pos_y4 () Int)
(declare-fun pos_y5 () Int)
(declare-fun pos_y6 () Int)
(declare-fun pos_y7 () Int)
(declare-fun pos_y8 () Int)
(declare-fun pos_y9 () Int)
(declare-fun rot0 () Bool)
(declare-fun rot1 () Bool)
(declare-fun rot2 () Bool)
(declare-fun rot3 () Bool)
(declare-fun rot4 () Bool)
(declare-fun rot5 () Bool)
(declare-fun rot6 () Bool)
(declare-fun rot7 () Bool)
(declare-fun rot8 () Bool)
(declare-fun rot9 () Bool)
(declare-fun w_real0 () Int)
(declare-fun w_real1 () Int)
(declare-fun w_real2 () Int)
(declare-fun w_real3 () Int)
(declare-fun w_real4 () Int)
(declare-fun w_real5 () Int)
(declare-fun w_real6 () Int)
(declare-fun w_real7 () Int)
(declare-fun w_real8 () Int)
(declare-fun w_real9 () Int)
(declare-fun h_real0 () Int)
(declare-fun h_real1 () Int)
(declare-fun h_real2 () Int)
(declare-fun h_real3 () Int)
(declare-fun h_real4 () Int)
(declare-fun h_real5 () Int)
(declare-fun h_real6 () Int)
(declare-fun h_real7 () Int)
(declare-fun h_real8 () Int)
(declare-fun h_real9 () Int)
(declare-fun l () Int)
(assert (and (>= pos_x0 0) (<= pos_x0 13)))
(assert (and (>= pos_x1 0) (<= pos_x1 13)))
(assert (and (>= pos_x2 0) (<= pos_x2 13)))
(assert (and (>= pos_x3 0) (<= pos_x3 13)))
(assert (and (>= pos_x4 0) (<= pos_x4 13)))
(assert (and (>= pos_x5 0) (<= pos_x5 13)))
(assert (and (>= pos_x6 0) (<= pos_x6 13)))
(assert (and (>= pos_x7 0) (<= pos_x7 13)))
(assert (and (>= pos_x8 0) (<= pos_x8 13)))
(assert (and (>= pos_x9 0) (<= pos_x9 13)))
(assert (and (>= pos_y0 0) (<= pos_y0 68)))
(assert (and (>= pos_y1 0) (<= pos_y1 68)))
(assert (and (>= pos_y2 0) (<= pos_y2 68)))
(assert (and (>= pos_y3 0) (<= pos_y3 68)))
(assert (and (>= pos_y4 0) (<= pos_y4 68)))
(assert (and (>= pos_y5 0) (<= pos_y5 68)))
(assert (and (>= pos_y6 0) (<= pos_y6 68)))
(assert (and (>= pos_y7 0) (<= pos_y7 68)))
(assert (and (>= pos_y8 0) (<= pos_y8 68)))
(assert (and (>= pos_y9 0) (<= pos_y9 68)))
(assert (ite rot0 (= w_real0 3) (= w_real0 3)))
(assert (ite rot1 (= w_real1 4) (= w_real1 3)))
(assert (ite rot2 (= w_real2 5) (= w_real2 3)))
(assert (ite rot3 (= w_real3 6) (= w_real3 3)))
(assert (ite rot4 (= w_real4 7) (= w_real4 3)))
(assert (ite rot5 (= w_real5 8) (= w_real5 3)))
(assert (ite rot6 (= w_real6 10) (= w_real6 3)))
(assert (ite rot7 (= w_real7 12) (= w_real7 3)))
(assert (ite rot8 (= w_real8 7) (= w_real8 4)))
(assert (ite rot9 (= w_real9 9) (= w_real9 7)))
(assert (ite rot0 (= h_real0 3) (= h_real0 3)))
(assert (ite rot1 (= h_real1 3) (= h_real1 4)))
(assert (ite rot2 (= h_real2 3) (= h_real2 5)))
(assert (ite rot3 (= h_real3 3) (= h_real3 6)))
(assert (ite rot4 (= h_real4 3) (= h_real4 7)))
(assert (ite rot5 (= h_real5 3) (= h_real5 8)))
(assert (ite rot6 (= h_real6 3) (= h_real6 10)))
(assert (ite rot7 (= h_real7 3) (= h_real7 12)))
(assert (ite rot8 (= h_real8 4) (= h_real8 7)))
(assert (ite rot9 (= h_real9 7) (= h_real9 9)))
(assert (and (>= l 16) (<= l 71)))
(assert (and (<= (+ pos_x0 w_real0) 16) (<= (+ pos_y0 h_real0) l)))
(assert (and (<= (+ pos_x1 w_real1) 16) (<= (+ pos_y1 h_real1) l)))
(assert (and (<= (+ pos_x2 w_real2) 16) (<= (+ pos_y2 h_real2) l)))
(assert (and (<= (+ pos_x3 w_real3) 16) (<= (+ pos_y3 h_real3) l)))
(assert (and (<= (+ pos_x4 w_real4) 16) (<= (+ pos_y4 h_real4) l)))
(assert (and (<= (+ pos_x5 w_real5) 16) (<= (+ pos_y5 h_real5) l)))
(assert (and (<= (+ pos_x6 w_real6) 16) (<= (+ pos_y6 h_real6) l)))
(assert (and (<= (+ pos_x7 w_real7) 16) (<= (+ pos_y7 h_real7) l)))
(assert (and (<= (+ pos_x8 w_real8) 16) (<= (+ pos_y8 h_real8) l)))
(assert (and (<= (+ pos_x9 w_real9) 16) (<= (+ pos_y9 h_real9) l)))
(assert (or (<= (+ pos_x0 w_real0) pos_x1) (<= (+ pos_y0 h_real0) pos_y1) (>= (- pos_x0 w_real1) pos_x1) (>= (- pos_y0 h_real1) pos_y1)))
(assert (or (<= (+ pos_x0 w_real0) pos_x2) (<= (+ pos_y0 h_real0) pos_y2) (>= (- pos_x0 w_real2) pos_x2) (>= (- pos_y0 h_real2) pos_y2)))
(assert (or (<= (+ pos_x0 w_real0) pos_x3) (<= (+ pos_y0 h_real0) pos_y3) (>= (- pos_x0 w_real3) pos_x3) (>= (- pos_y0 h_real3) pos_y3)))
(assert (or (<= (+ pos_x0 w_real0) pos_x4) (<= (+ pos_y0 h_real0) pos_y4) (>= (- pos_x0 w_real4) pos_x4) (>= (- pos_y0 h_real4) pos_y4)))
(assert (or (<= (+ pos_x0 w_real0) pos_x5) (<= (+ pos_y0 h_real0) pos_y5) (>= (- pos_x0 w_real5) pos_x5) (>= (- pos_y0 h_real5) pos_y5)))
(assert (or (<= (+ pos_x0 w_real0) pos_x6) (<= (+ pos_y0 h_real0) pos_y6) (>= (- pos_x0 w_real6) pos_x6) (>= (- pos_y0 h_real6) pos_y6)))
(assert (or (<= (+ pos_x0 w_real0) pos_x7) (<= (+ pos_y0 h_real0) pos_y7) (>= (- pos_x0 w_real7) pos_x7) (>= (- pos_y0 h_real7) pos_y7)))
(assert (or (<= (+ pos_x0 w_real0) pos_x8) (<= (+ pos_y0 h_real0) pos_y8) (>= (- pos_x0 w_real8) pos_x8) (>= (- pos_y0 h_real8) pos_y8)))
(assert (or (<= (+ pos_x0 w_real0) pos_x9) (<= (+ pos_y0 h_real0) pos_y9) (>= (- pos_x0 w_real9) pos_x9) (>= (- pos_y0 h_real9) pos_y9)))
(assert (or (<= (+ pos_x1 w_real1) pos_x2) (<= (+ pos_y1 h_real1) pos_y2) (>= (- pos_x1 w_real2) pos_x2) (>= (- pos_y1 h_real2) pos_y2)))
(assert (or (<= (+ pos_x1 w_real1) pos_x3) (<= (+ pos_y1 h_real1) pos_y3) (>= (- pos_x1 w_real3) pos_x3) (>= (- pos_y1 h_real3) pos_y3)))
(assert (or (<= (+ pos_x1 w_real1) pos_x4) (<= (+ pos_y1 h_real1) pos_y4) (>= (- pos_x1 w_real4) pos_x4) (>= (- pos_y1 h_real4) pos_y4)))
(assert (or (<= (+ pos_x1 w_real1) pos_x5) (<= (+ pos_y1 h_real1) pos_y5) (>= (- pos_x1 w_real5) pos_x5) (>= (- pos_y1 h_real5) pos_y5)))
(assert (or (<= (+ pos_x1 w_real1) pos_x6) (<= (+ pos_y1 h_real1) pos_y6) (>= (- pos_x1 w_real6) pos_x6) (>= (- pos_y1 h_real6) pos_y6)))
(assert (or (<= (+ pos_x1 w_real1) pos_x7) (<= (+ pos_y1 h_real1) pos_y7) (>= (- pos_x1 w_real7) pos_x7) (>= (- pos_y1 h_real7) pos_y7)))
(assert (or (<= (+ pos_x1 w_real1) pos_x8) (<= (+ pos_y1 h_real1) pos_y8) (>= (- pos_x1 w_real8) pos_x8) (>= (- pos_y1 h_real8) pos_y8)))
(assert (or (<= (+ pos_x1 w_real1) pos_x9) (<= (+ pos_y1 h_real1) pos_y9) (>= (- pos_x1 w_real9) pos_x9) (>= (- pos_y1 h_real9) pos_y9)))
(assert (or (<= (+ pos_x2 w_real2) pos_x3) (<= (+ pos_y2 h_real2) pos_y3) (>= (- pos_x2 w_real3) pos_x3) (>= (- pos_y2 h_real3) pos_y3)))
(assert (or (<= (+ pos_x2 w_real2) pos_x4) (<= (+ pos_y2 h_real2) pos_y4) (>= (- pos_x2 w_real4) pos_x4) (>= (- pos_y2 h_real4) pos_y4)))
(assert (or (<= (+ pos_x2 w_real2) pos_x5) (<= (+ pos_y2 h_real2) pos_y5) (>= (- pos_x2 w_real5) pos_x5) (>= (- pos_y2 h_real5) pos_y5)))
(assert (or (<= (+ pos_x2 w_real2) pos_x6) (<= (+ pos_y2 h_real2) pos_y6) (>= (- pos_x2 w_real6) pos_x6) (>= (- pos_y2 h_real6) pos_y6)))
(assert (or (<= (+ pos_x2 w_real2) pos_x7) (<= (+ pos_y2 h_real2) pos_y7) (>= (- pos_x2 w_real7) pos_x7) (>= (- pos_y2 h_real7) pos_y7)))
(assert (or (<= (+ pos_x2 w_real2) pos_x8) (<= (+ pos_y2 h_real2) pos_y8) (>= (- pos_x2 w_real8) pos_x8) (>= (- pos_y2 h_real8) pos_y8)))
(assert (or (<= (+ pos_x2 w_real2) pos_x9) (<= (+ pos_y2 h_real2) pos_y9) (>= (- pos_x2 w_real9) pos_x9) (>= (- pos_y2 h_real9) pos_y9)))
(assert (or (<= (+ pos_x3 w_real3) pos_x4) (<= (+ pos_y3 h_real3) pos_y4) (>= (- pos_x3 w_real4) pos_x4) (>= (- pos_y3 h_real4) pos_y4)))
(assert (or (<= (+ pos_x3 w_real3) pos_x5) (<= (+ pos_y3 h_real3) pos_y5) (>= (- pos_x3 w_real5) pos_x5) (>= (- pos_y3 h_real5) pos_y5)))
(assert (or (<= (+ pos_x3 w_real3) pos_x6) (<= (+ pos_y3 h_real3) pos_y6) (>= (- pos_x3 w_real6) pos_x6) (>= (- pos_y3 h_real6) pos_y6)))
(assert (or (<= (+ pos_x3 w_real3) pos_x7) (<= (+ pos_y3 h_real3) pos_y7) (>= (- pos_x3 w_real7) pos_x7) (>= (- pos_y3 h_real7) pos_y7)))
(assert (or (<= (+ pos_x3 w_real3) pos_x8) (<= (+ pos_y3 h_real3) pos_y8) (>= (- pos_x3 w_real8) pos_x8) (>= (- pos_y3 h_real8) pos_y8)))
(assert (or (<= (+ pos_x3 w_real3) pos_x9) (<= (+ pos_y3 h_real3) pos_y9) (>= (- pos_x3 w_real9) pos_x9) (>= (- pos_y3 h_real9) pos_y9)))
(assert (or (<= (+ pos_x4 w_real4) pos_x5) (<= (+ pos_y4 h_real4) pos_y5) (>= (- pos_x4 w_real5) pos_x5) (>= (- pos_y4 h_real5) pos_y5)))
(assert (or (<= (+ pos_x4 w_real4) pos_x6) (<= (+ pos_y4 h_real4) pos_y6) (>= (- pos_x4 w_real6) pos_x6) (>= (- pos_y4 h_real6) pos_y6)))
(assert (or (<= (+ pos_x4 w_real4) pos_x7) (<= (+ pos_y4 h_real4) pos_y7) (>= (- pos_x4 w_real7) pos_x7) (>= (- pos_y4 h_real7) pos_y7)))
(assert (or (<= (+ pos_x4 w_real4) pos_x8) (<= (+ pos_y4 h_real4) pos_y8) (>= (- pos_x4 w_real8) pos_x8) (>= (- pos_y4 h_real8) pos_y8)))
(assert (or (<= (+ pos_x4 w_real4) pos_x9) (<= (+ pos_y4 h_real4) pos_y9) (>= (- pos_x4 w_real9) pos_x9) (>= (- pos_y4 h_real9) pos_y9)))
(assert (or (<= (+ pos_x5 w_real5) pos_x6) (<= (+ pos_y5 h_real5) pos_y6) (>= (- pos_x5 w_real6) pos_x6) (>= (- pos_y5 h_real6) pos_y6)))
(assert (or (<= (+ pos_x5 w_real5) pos_x7) (<= (+ pos_y5 h_real5) pos_y7) (>= (- pos_x5 w_real7) pos_x7) (>= (- pos_y5 h_real7) pos_y7)))
(assert (or (<= (+ pos_x5 w_real5) pos_x8) (<= (+ pos_y5 h_real5) pos_y8) (>= (- pos_x5 w_real8) pos_x8) (>= (- pos_y5 h_real8) pos_y8)))
(assert (or (<= (+ pos_x5 w_real5) pos_x9) (<= (+ pos_y5 h_real5) pos_y9) (>= (- pos_x5 w_real9) pos_x9) (>= (- pos_y5 h_real9) pos_y9)))
(assert (or (<= (+ pos_x6 w_real6) pos_x7) (<= (+ pos_y6 h_real6) pos_y7) (>= (- pos_x6 w_real7) pos_x7) (>= (- pos_y6 h_real7) pos_y7)))
(assert (or (<= (+ pos_x6 w_real6) pos_x8) (<= (+ pos_y6 h_real6) pos_y8) (>= (- pos_x6 w_real8) pos_x8) (>= (- pos_y6 h_real8) pos_y8)))
(assert (or (<= (+ pos_x6 w_real6) pos_x9) (<= (+ pos_y6 h_real6) pos_y9) (>= (- pos_x6 w_real9) pos_x9) (>= (- pos_y6 h_real9) pos_y9)))
(assert (or (<= (+ pos_x7 w_real7) pos_x8) (<= (+ pos_y7 h_real7) pos_y8) (>= (- pos_x7 w_real8) pos_x8) (>= (- pos_y7 h_real8) pos_y8)))
(assert (or (<= (+ pos_x7 w_real7) pos_x9) (<= (+ pos_y7 h_real7) pos_y9) (>= (- pos_x7 w_real9) pos_x9) (>= (- pos_y7 h_real9) pos_y9)))
(assert (or (<= (+ pos_x8 w_real8) pos_x9) (<= (+ pos_y8 h_real8) pos_y9) (>= (- pos_x8 w_real9) pos_x9) (>= (- pos_y8 h_real9) pos_y9)))
(assert (<= (+ (ite (and (<= pos_y0 3) (< 3 (+ pos_y0 h_real0))) w_real0 0) (ite (and (<= pos_y1 3) (< 3 (+ pos_y1 h_real1))) w_real1 0) (ite (and (<= pos_y2 3) (< 3 (+ pos_y2 h_real2))) w_real2 0) (ite (and (<= pos_y3 3) (< 3 (+ pos_y3 h_real3))) w_real3 0) (ite (and (<= pos_y4 3) (< 3 (+ pos_y4 h_real4))) w_real4 0) (ite (and (<= pos_y5 3) (< 3 (+ pos_y5 h_real5))) w_real5 0) (ite (and (<= pos_y6 3) (< 3 (+ pos_y6 h_real6))) w_real6 0) (ite (and (<= pos_y7 3) (< 3 (+ pos_y7 h_real7))) w_real7 0) (ite (and (<= pos_y8 3) (< 3 (+ pos_y8 h_real8))) w_real8 0) (ite (and (<= pos_y9 3) (< 3 (+ pos_y9 h_real9))) w_real9 0)) 16))
(assert (<= (+ (ite (and (<= pos_y0 4) (< 4 (+ pos_y0 h_real0))) w_real0 0) (ite (and (<= pos_y1 4) (< 4 (+ pos_y1 h_real1))) w_real1 0) (ite (and (<= pos_y2 4) (< 4 (+ pos_y2 h_real2))) w_real2 0) (ite (and (<= pos_y3 4) (< 4 (+ pos_y3 h_real3))) w_real3 0) (ite (and (<= pos_y4 4) (< 4 (+ pos_y4 h_real4))) w_real4 0) (ite (and (<= pos_y5 4) (< 4 (+ pos_y5 h_real5))) w_real5 0) (ite (and (<= pos_y6 4) (< 4 (+ pos_y6 h_real6))) w_real6 0) (ite (and (<= pos_y7 4) (< 4 (+ pos_y7 h_real7))) w_real7 0) (ite (and (<= pos_y8 4) (< 4 (+ pos_y8 h_real8))) w_real8 0) (ite (and (<= pos_y9 4) (< 4 (+ pos_y9 h_real9))) w_real9 0)) 16))
(assert (<= (+ (ite (and (<= pos_y0 5) (< 5 (+ pos_y0 h_real0))) w_real0 0) (ite (and (<= pos_y1 5) (< 5 (+ pos_y1 h_real1))) w_real1 0) (ite (and (<= pos_y2 5) (< 5 (+ pos_y2 h_real2))) w_real2 0) (ite (and (<= pos_y3 5) (< 5 (+ pos_y3 h_real3))) w_real3 0) (ite (and (<= pos_y4 5) (< 5 (+ pos_y4 h_real4))) w_real4 0) (ite (and (<= pos_y5 5) (< 5 (+ pos_y5 h_real5))) w_real5 0) (ite (and (<= pos_y6 5) (< 5 (+ pos_y6 h_real6))) w_real6 0) (ite (and (<= pos_y7 5) (< 5 (+ pos_y7 h_real7))) w_real7 0) (ite (and (<= pos_y8 5) (< 5 (+ pos_y8 h_real8))) w_real8 0) (ite (and (<= pos_y9 5) (< 5 (+ pos_y9 h_real9))) w_real9 0)) 16))
(assert (<= (+ (ite (and (<= pos_y0 6) (< 6 (+ pos_y0 h_real0))) w_real0 0) (ite (and (<= pos_y1 6) (< 6 (+ pos_y1 h_real1))) w_real1 0) (ite (and (<= pos_y2 6) (< 6 (+ pos_y2 h_real2))) w_real2 0) (ite (and (<= pos_y3 6) (< 6 (+ pos_y3 h_real3))) w_real3 0) (ite (and (<= pos_y4 6) (< 6 (+ pos_y4 h_real4))) w_real4 0) (ite (and (<= pos_y5 6) (< 6 (+ pos_y5 h_real5))) w_real5 0) (ite (and (<= pos_y6 6) (< 6 (+ pos_y6 h_real6))) w_real6 0) (ite (and (<= pos_y7 6) (< 6 (+ pos_y7 h_real7))) w_real7 0) (ite (and (<= pos_y8 6) (< 6 (+ pos_y8 h_real8))) w_real8 0) (ite (and (<= pos_y9 6) (< 6 (+ pos_y9 h_real9))) w_real9 0)) 16))
(assert (<= (+ (ite (and (<= pos_y0 7) (< 7 (+ pos_y0 h_real0))) w_real0 0) (ite (and (<= pos_y1 7) (< 7 (+ pos_y1 h_real1))) w_real1 0) (ite (and (<= pos_y2 7) (< 7 (+ pos_y2 h_real2))) w_real2 0) (ite (and (<= pos_y3 7) (< 7 (+ pos_y3 h_real3))) w_real3 0) (ite (and (<= pos_y4 7) (< 7 (+ pos_y4 h_real4))) w_real4 0) (ite (and (<= pos_y5 7) (< 7 (+ pos_y5 h_real5))) w_real5 0) (ite (and (<= pos_y6 7) (< 7 (+ pos_y6 h_real6))) w_real6 0) (ite (and (<= pos_y7 7) (< 7 (+ pos_y7 h_real7))) w_real7 0) (ite (and (<= pos_y8 7) (< 7 (+ pos_y8 h_real8))) w_real8 0) (ite (and (<= pos_y9 7) (< 7 (+ pos_y9 h_real9))) w_real9 0)) 16))
(assert (<= (+ (ite (and (<= pos_y0 8) (< 8 (+ pos_y0 h_real0))) w_real0 0) (ite (and (<= pos_y1 8) (< 8 (+ pos_y1 h_real1))) w_real1 0) (ite (and (<= pos_y2 8) (< 8 (+ pos_y2 h_real2))) w_real2 0) (ite (and (<= pos_y3 8) (< 8 (+ pos_y3 h_real3))) w_real3 0) (ite (and (<= pos_y4 8) (< 8 (+ pos_y4 h_real4))) w_real4 0) (ite (and (<= pos_y5 8) (< 8 (+ pos_y5 h_real5))) w_real5 0) (ite (and (<= pos_y6 8) (< 8 (+ pos_y6 h_real6))) w_real6 0) (ite (and (<= pos_y7 8) (< 8 (+ pos_y7 h_real7))) w_real7 0) (ite (and (<= pos_y8 8) (< 8 (+ pos_y8 h_real8))) w_real8 0) (ite (and (<= pos_y9 8) (< 8 (+ pos_y9 h_real9))) w_real9 0)) 16))
(assert (<= (+ (ite (and (<= pos_y0 10) (< 10 (+ pos_y0 h_real0))) w_real0 0) (ite (and (<= pos_y1 10) (< 10 (+ pos_y1 h_real1))) w_real1 0) (ite (and (<= pos_y2 10) (< 10 (+ pos_y2 h_real2))) w_real2 0) (ite (and (<= pos_y3 10) (< 10 (+ pos_y3 h_real3))) w_real3 0) (ite (and (<= pos_y4 10) (< 10 (+ pos_y4 h_real4))) w_real4 0) (ite (and (<= pos_y5 10) (< 10 (+ pos_y5 h_real5))) w_real5 0) (ite (and (<= pos_y6 10) (< 10 (+ pos_y6 h_real6))) w_real6 0) (ite (and (<= pos_y7 10) (< 10 (+ pos_y7 h_real7))) w_real7 0) (ite (and (<= pos_y8 10) (< 10 (+ pos_y8 h_real8))) w_real8 0) (ite (and (<= pos_y9 10) (< 10 (+ pos_y9 h_real9))) w_real9 0)) 16))
(assert (<= (+ (ite (and (<= pos_y0 12) (< 12 (+ pos_y0 h_real0))) w_real0 0) (ite (and (<= pos_y1 12) (< 12 (+ pos_y1 h_real1))) w_real1 0) (ite (and (<= pos_y2 12) (< 12 (+ pos_y2 h_real2))) w_real2 0) (ite (and (<= pos_y3 12) (< 12 (+ pos_y3 h_real3))) w_real3 0) (ite (and (<= pos_y4 12) (< 12 (+ pos_y4 h_real4))) w_real4 0) (ite (and (<= pos_y5 12) (< 12 (+ pos_y5 h_real5))) w_real5 0) (ite (and (<= pos_y6 12) (< 12 (+ pos_y6 h_real6))) w_real6 0) (ite (and (<= pos_y7 12) (< 12 (+ pos_y7 h_real7))) w_real7 0) (ite (and (<= pos_y8 12) (< 12 (+ pos_y8 h_real8))) w_real8 0) (ite (and (<= pos_y9 12) (< 12 (+ pos_y9 h_real9))) w_real9 0)) 16))
(assert (<= (+ (ite (and (<= pos_y0 7) (< 7 (+ pos_y0 h_real0))) w_real0 0) (ite (and (<= pos_y1 7) (< 7 (+ pos_y1 h_real1))) w_real1 0) (ite (and (<= pos_y2 7) (< 7 (+ pos_y2 h_real2))) w_real2 0) (ite (and (<= pos_y3 7) (< 7 (+ pos_y3 h_real3))) w_real3 0) (ite (and (<= pos_y4 7) (< 7 (+ pos_y4 h_real4))) w_real4 0) (ite (and (<= pos_y5 7) (< 7 (+ pos_y5 h_real5))) w_real5 0) (ite (and (<= pos_y6 7) (< 7 (+ pos_y6 h_real6))) w_real6 0) (ite (and (<= pos_y7 7) (< 7 (+ pos_y7 h_real7))) w_real7 0) (ite (and (<= pos_y8 7) (< 7 (+ pos_y8 h_real8))) w_real8 0) (ite (and (<= pos_y9 7) (< 7 (+ pos_y9 h_real9))) w_real9 0)) 16))
(assert (<= (+ (ite (and (<= pos_y0 9) (< 9 (+ pos_y0 h_real0))) w_real0 0) (ite (and (<= pos_y1 9) (< 9 (+ pos_y1 h_real1))) w_real1 0) (ite (and (<= pos_y2 9) (< 9 (+ pos_y2 h_real2))) w_real2 0) (ite (and (<= pos_y3 9) (< 9 (+ pos_y3 h_real3))) w_real3 0) (ite (and (<= pos_y4 9) (< 9 (+ pos_y4 h_real4))) w_real4 0) (ite (and (<= pos_y5 9) (< 9 (+ pos_y5 h_real5))) w_real5 0) (ite (and (<= pos_y6 9) (< 9 (+ pos_y6 h_real6))) w_real6 0) (ite (and (<= pos_y7 9) (< 9 (+ pos_y7 h_real7))) w_real7 0) (ite (and (<= pos_y8 9) (< 9 (+ pos_y8 h_real8))) w_real8 0) (ite (and (<= pos_y9 9) (< 9 (+ pos_y9 h_real9))) w_real9 0)) 16))
(assert (<= (+ (ite (and (<= pos_x0 3) (< 3 (+ pos_x0 w_real0))) h_real0 0) (ite (and (<= pos_x1 3) (< 3 (+ pos_x1 w_real1))) h_real1 0) (ite (and (<= pos_x2 3) (< 3 (+ pos_x2 w_real2))) h_real2 0) (ite (and (<= pos_x3 3) (< 3 (+ pos_x3 w_real3))) h_real3 0) (ite (and (<= pos_x4 3) (< 3 (+ pos_x4 w_real4))) h_real4 0) (ite (and (<= pos_x5 3) (< 3 (+ pos_x5 w_real5))) h_real5 0) (ite (and (<= pos_x6 3) (< 3 (+ pos_x6 w_real6))) h_real6 0) (ite (and (<= pos_x7 3) (< 3 (+ pos_x7 w_real7))) h_real7 0) (ite (and (<= pos_x8 3) (< 3 (+ pos_x8 w_real8))) h_real8 0) (ite (and (<= pos_x9 3) (< 3 (+ pos_x9 w_real9))) h_real9 0)) l))
(assert (<= (+ (ite (and (<= pos_x0 3) (< 3 (+ pos_x0 w_real0))) h_real0 0) (ite (and (<= pos_x1 3) (< 3 (+ pos_x1 w_real1))) h_real1 0) (ite (and (<= pos_x2 3) (< 3 (+ pos_x2 w_real2))) h_real2 0) (ite (and (<= pos_x3 3) (< 3 (+ pos_x3 w_real3))) h_real3 0) (ite (and (<= pos_x4 3) (< 3 (+ pos_x4 w_real4))) h_real4 0) (ite (and (<= pos_x5 3) (< 3 (+ pos_x5 w_real5))) h_real5 0) (ite (and (<= pos_x6 3) (< 3 (+ pos_x6 w_real6))) h_real6 0) (ite (and (<= pos_x7 3) (< 3 (+ pos_x7 w_real7))) h_real7 0) (ite (and (<= pos_x8 3) (< 3 (+ pos_x8 w_real8))) h_real8 0) (ite (and (<= pos_x9 3) (< 3 (+ pos_x9 w_real9))) h_real9 0)) l))
(assert (<= (+ (ite (and (<= pos_x0 3) (< 3 (+ pos_x0 w_real0))) h_real0 0) (ite (and (<= pos_x1 3) (< 3 (+ pos_x1 w_real1))) h_real1 0) (ite (and (<= pos_x2 3) (< 3 (+ pos_x2 w_real2))) h_real2 0) (ite (and (<= pos_x3 3) (< 3 (+ pos_x3 w_real3))) h_real3 0) (ite (and (<= pos_x4 3) (< 3 (+ pos_x4 w_real4))) h_real4 0) (ite (and (<= pos_x5 3) (< 3 (+ pos_x5 w_real5))) h_real5 0) (ite (and (<= pos_x6 3) (< 3 (+ pos_x6 w_real6))) h_real6 0) (ite (and (<= pos_x7 3) (< 3 (+ pos_x7 w_real7))) h_real7 0) (ite (and (<= pos_x8 3) (< 3 (+ pos_x8 w_real8))) h_real8 0) (ite (and (<= pos_x9 3) (< 3 (+ pos_x9 w_real9))) h_real9 0)) l))
(assert (<= (+ (ite (and (<= pos_x0 3) (< 3 (+ pos_x0 w_real0))) h_real0 0) (ite (and (<= pos_x1 3) (< 3 (+ pos_x1 w_real1))) h_real1 0) (ite (and (<= pos_x2 3) (< 3 (+ pos_x2 w_real2))) h_real2 0) (ite (and (<= pos_x3 3) (< 3 (+ pos_x3 w_real3))) h_real3 0) (ite (and (<= pos_x4 3) (< 3 (+ pos_x4 w_real4))) h_real4 0) (ite (and (<= pos_x5 3) (< 3 (+ pos_x5 w_real5))) h_real5 0) (ite (and (<= pos_x6 3) (< 3 (+ pos_x6 w_real6))) h_real6 0) (ite (and (<= pos_x7 3) (< 3 (+ pos_x7 w_real7))) h_real7 0) (ite (and (<= pos_x8 3) (< 3 (+ pos_x8 w_real8))) h_real8 0) (ite (and (<= pos_x9 3) (< 3 (+ pos_x9 w_real9))) h_real9 0)) l))
(assert (<= (+ (ite (and (<= pos_x0 3) (< 3 (+ pos_x0 w_real0))) h_real0 0) (ite (and (<= pos_x1 3) (< 3 (+ pos_x1 w_real1))) h_real1 0) (ite (and (<= pos_x2 3) (< 3 (+ pos_x2 w_real2))) h_real2 0) (ite (and (<= pos_x3 3) (< 3 (+ pos_x3 w_real3))) h_real3 0) (ite (and (<= pos_x4 3) (< 3 (+ pos_x4 w_real4))) h_real4 0) (ite (and (<= pos_x5 3) (< 3 (+ pos_x5 w_real5))) h_real5 0) (ite (and (<= pos_x6 3) (< 3 (+ pos_x6 w_real6))) h_real6 0) (ite (and (<= pos_x7 3) (< 3 (+ pos_x7 w_real7))) h_real7 0) (ite (and (<= pos_x8 3) (< 3 (+ pos_x8 w_real8))) h_real8 0) (ite (and (<= pos_x9 3) (< 3 (+ pos_x9 w_real9))) h_real9 0)) l))
(assert (<= (+ (ite (and (<= pos_x0 3) (< 3 (+ pos_x0 w_real0))) h_real0 0) (ite (and (<= pos_x1 3) (< 3 (+ pos_x1 w_real1))) h_real1 0) (ite (and (<= pos_x2 3) (< 3 (+ pos_x2 w_real2))) h_real2 0) (ite (and (<= pos_x3 3) (< 3 (+ pos_x3 w_real3))) h_real3 0) (ite (and (<= pos_x4 3) (< 3 (+ pos_x4 w_real4))) h_real4 0) (ite (and (<= pos_x5 3) (< 3 (+ pos_x5 w_real5))) h_real5 0) (ite (and (<= pos_x6 3) (< 3 (+ pos_x6 w_real6))) h_real6 0) (ite (and (<= pos_x7 3) (< 3 (+ pos_x7 w_real7))) h_real7 0) (ite (and (<= pos_x8 3) (< 3 (+ pos_x8 w_real8))) h_real8 0) (ite (and (<= pos_x9 3) (< 3 (+ pos_x9 w_real9))) h_real9 0)) l))
(assert (<= (+ (ite (and (<= pos_x0 3) (< 3 (+ pos_x0 w_real0))) h_real0 0) (ite (and (<= pos_x1 3) (< 3 (+ pos_x1 w_real1))) h_real1 0) (ite (and (<= pos_x2 3) (< 3 (+ pos_x2 w_real2))) h_real2 0) (ite (and (<= pos_x3 3) (< 3 (+ pos_x3 w_real3))) h_real3 0) (ite (and (<= pos_x4 3) (< 3 (+ pos_x4 w_real4))) h_real4 0) (ite (and (<= pos_x5 3) (< 3 (+ pos_x5 w_real5))) h_real5 0) (ite (and (<= pos_x6 3) (< 3 (+ pos_x6 w_real6))) h_real6 0) (ite (and (<= pos_x7 3) (< 3 (+ pos_x7 w_real7))) h_real7 0) (ite (and (<= pos_x8 3) (< 3 (+ pos_x8 w_real8))) h_real8 0) (ite (and (<= pos_x9 3) (< 3 (+ pos_x9 w_real9))) h_real9 0)) l))
(assert (<= (+ (ite (and (<= pos_x0 3) (< 3 (+ pos_x0 w_real0))) h_real0 0) (ite (and (<= pos_x1 3) (< 3 (+ pos_x1 w_real1))) h_real1 0) (ite (and (<= pos_x2 3) (< 3 (+ pos_x2 w_real2))) h_real2 0) (ite (and (<= pos_x3 3) (< 3 (+ pos_x3 w_real3))) h_real3 0) (ite (and (<= pos_x4 3) (< 3 (+ pos_x4 w_real4))) h_real4 0) (ite (and (<= pos_x5 3) (< 3 (+ pos_x5 w_real5))) h_real5 0) (ite (and (<= pos_x6 3) (< 3 (+ pos_x6 w_real6))) h_real6 0) (ite (and (<= pos_x7 3) (< 3 (+ pos_x7 w_real7))) h_real7 0) (ite (and (<= pos_x8 3) (< 3 (+ pos_x8 w_real8))) h_real8 0) (ite (and (<= pos_x9 3) (< 3 (+ pos_x9 w_real9))) h_real9 0)) l))
(assert (<= (+ (ite (and (<= pos_x0 4) (< 4 (+ pos_x0 w_real0))) h_real0 0) (ite (and (<= pos_x1 4) (< 4 (+ pos_x1 w_real1))) h_real1 0) (ite (and (<= pos_x2 4) (< 4 (+ pos_x2 w_real2))) h_real2 0) (ite (and (<= pos_x3 4) (< 4 (+ pos_x3 w_real3))) h_real3 0) (ite (and (<= pos_x4 4) (< 4 (+ pos_x4 w_real4))) h_real4 0) (ite (and (<= pos_x5 4) (< 4 (+ pos_x5 w_real5))) h_real5 0) (ite (and (<= pos_x6 4) (< 4 (+ pos_x6 w_real6))) h_real6 0) (ite (and (<= pos_x7 4) (< 4 (+ pos_x7 w_real7))) h_real7 0) (ite (and (<= pos_x8 4) (< 4 (+ pos_x8 w_real8))) h_real8 0) (ite (and (<= pos_x9 4) (< 4 (+ pos_x9 w_real9))) h_real9 0)) l))
(assert (<= (+ (ite (and (<= pos_x0 7) (< 7 (+ pos_x0 w_real0))) h_real0 0) (ite (and (<= pos_x1 7) (< 7 (+ pos_x1 w_real1))) h_real1 0) (ite (and (<= pos_x2 7) (< 7 (+ pos_x2 w_real2))) h_real2 0) (ite (and (<= pos_x3 7) (< 7 (+ pos_x3 w_real3))) h_real3 0) (ite (and (<= pos_x4 7) (< 7 (+ pos_x4 w_real4))) h_real4 0) (ite (and (<= pos_x5 7) (< 7 (+ pos_x5 w_real5))) h_real5 0) (ite (and (<= pos_x6 7) (< 7 (+ pos_x6 w_real6))) h_real6 0) (ite (and (<= pos_x7 7) (< 7 (+ pos_x7 w_real7))) h_real7 0) (ite (and (<= pos_x8 7) (< 7 (+ pos_x8 w_real8))) h_real8 0) (ite (and (<= pos_x9 7) (< 7 (+ pos_x9 w_real9))) h_real9 0)) l))
(assert (ite (and (= 3 3) (= 3 4)) (and (<= pos_x0 pos_x1) (<= pos_y0 pos_y1)) true))
(assert (ite (and (= 3 3) (= 3 5)) (and (<= pos_x0 pos_x2) (<= pos_y0 pos_y2)) true))
(assert (ite (and (= 3 3) (= 3 6)) (and (<= pos_x0 pos_x3) (<= pos_y0 pos_y3)) true))
(assert (ite (and (= 3 3) (= 3 7)) (and (<= pos_x0 pos_x4) (<= pos_y0 pos_y4)) true))
(assert (ite (and (= 3 3) (= 3 8)) (and (<= pos_x0 pos_x5) (<= pos_y0 pos_y5)) true))
(assert (ite (and (= 3 3) (= 3 10)) (and (<= pos_x0 pos_x6) (<= pos_y0 pos_y6)) true))
(assert (ite (and (= 3 3) (= 3 12)) (and (<= pos_x0 pos_x7) (<= pos_y0 pos_y7)) true))
(assert (ite (and (= 3 4) (= 3 7)) (and (<= pos_x0 pos_x8) (<= pos_y0 pos_y8)) true))
(assert (ite (and (= 3 7) (= 3 9)) (and (<= pos_x0 pos_x9) (<= pos_y0 pos_y9)) true))
(assert (ite (and (= 3 3) (= 4 5)) (and (<= pos_x1 pos_x2) (<= pos_y1 pos_y2)) true))
(assert (ite (and (= 3 3) (= 4 6)) (and (<= pos_x1 pos_x3) (<= pos_y1 pos_y3)) true))
(assert (ite (and (= 3 3) (= 4 7)) (and (<= pos_x1 pos_x4) (<= pos_y1 pos_y4)) true))
(assert (ite (and (= 3 3) (= 4 8)) (and (<= pos_x1 pos_x5) (<= pos_y1 pos_y5)) true))
(assert (ite (and (= 3 3) (= 4 10)) (and (<= pos_x1 pos_x6) (<= pos_y1 pos_y6)) true))
(assert (ite (and (= 3 3) (= 4 12)) (and (<= pos_x1 pos_x7) (<= pos_y1 pos_y7)) true))
(assert (ite (and (= 3 4) (= 4 7)) (and (<= pos_x1 pos_x8) (<= pos_y1 pos_y8)) true))
(assert (ite (and (= 3 7) (= 4 9)) (and (<= pos_x1 pos_x9) (<= pos_y1 pos_y9)) true))
(assert (ite (and (= 3 3) (= 5 6)) (and (<= pos_x2 pos_x3) (<= pos_y2 pos_y3)) true))
(assert (ite (and (= 3 3) (= 5 7)) (and (<= pos_x2 pos_x4) (<= pos_y2 pos_y4)) true))
(assert (ite (and (= 3 3) (= 5 8)) (and (<= pos_x2 pos_x5) (<= pos_y2 pos_y5)) true))
(assert (ite (and (= 3 3) (= 5 10)) (and (<= pos_x2 pos_x6) (<= pos_y2 pos_y6)) true))
(assert (ite (and (= 3 3) (= 5 12)) (and (<= pos_x2 pos_x7) (<= pos_y2 pos_y7)) true))
(assert (ite (and (= 3 4) (= 5 7)) (and (<= pos_x2 pos_x8) (<= pos_y2 pos_y8)) true))
(assert (ite (and (= 3 7) (= 5 9)) (and (<= pos_x2 pos_x9) (<= pos_y2 pos_y9)) true))
(assert (ite (and (= 3 3) (= 6 7)) (and (<= pos_x3 pos_x4) (<= pos_y3 pos_y4)) true))
(assert (ite (and (= 3 3) (= 6 8)) (and (<= pos_x3 pos_x5) (<= pos_y3 pos_y5)) true))
(assert (ite (and (= 3 3) (= 6 10)) (and (<= pos_x3 pos_x6) (<= pos_y3 pos_y6)) true))
(assert (ite (and (= 3 3) (= 6 12)) (and (<= pos_x3 pos_x7) (<= pos_y3 pos_y7)) true))
(assert (ite (and (= 3 4) (= 6 7)) (and (<= pos_x3 pos_x8) (<= pos_y3 pos_y8)) true))
(assert (ite (and (= 3 7) (= 6 9)) (and (<= pos_x3 pos_x9) (<= pos_y3 pos_y9)) true))
(assert (ite (and (= 3 3) (= 7 8)) (and (<= pos_x4 pos_x5) (<= pos_y4 pos_y5)) true))
(assert (ite (and (= 3 3) (= 7 10)) (and (<= pos_x4 pos_x6) (<= pos_y4 pos_y6)) true))
(assert (ite (and (= 3 3) (= 7 12)) (and (<= pos_x4 pos_x7) (<= pos_y4 pos_y7)) true))
(assert (ite (and (= 3 4) (= 7 7)) (and (<= pos_x4 pos_x8) (<= pos_y4 pos_y8)) true))
(assert (ite (and (= 3 7) (= 7 9)) (and (<= pos_x4 pos_x9) (<= pos_y4 pos_y9)) true))
(assert (ite (and (= 3 3) (= 8 10)) (and (<= pos_x5 pos_x6) (<= pos_y5 pos_y6)) true))
(assert (ite (and (= 3 3) (= 8 12)) (and (<= pos_x5 pos_x7) (<= pos_y5 pos_y7)) true))
(assert (ite (and (= 3 4) (= 8 7)) (and (<= pos_x5 pos_x8) (<= pos_y5 pos_y8)) true))
(assert (ite (and (= 3 7) (= 8 9)) (and (<= pos_x5 pos_x9) (<= pos_y5 pos_y9)) true))
(assert (ite (and (= 3 3) (= 10 12)) (and (<= pos_x6 pos_x7) (<= pos_y6 pos_y7)) true))
(assert (ite (and (= 3 4) (= 10 7)) (and (<= pos_x6 pos_x8) (<= pos_y6 pos_y8)) true))
(assert (ite (and (= 3 7) (= 10 9)) (and (<= pos_x6 pos_x9) (<= pos_y6 pos_y9)) true))
(assert (ite (and (= 3 4) (= 12 7)) (and (<= pos_x7 pos_x8) (<= pos_y7 pos_y8)) true))
(assert (ite (and (= 3 7) (= 12 9)) (and (<= pos_x7 pos_x9) (<= pos_y7 pos_y9)) true))
(assert (ite (and (= 4 7) (= 7 9)) (and (<= pos_x8 pos_x9) (<= pos_y8 pos_y9)) true))
(assert (= rot0 false))
(assert (= pos_x9 0))
(assert (= pos_y9 0))
(check-sat)
(get-value (pos_x0))
(get-value (pos_y0))
(get-value (rot0))
(get-value (pos_x1))
(get-value (pos_y1))
(get-value (rot1))
(get-value (pos_x2))
(get-value (pos_y2))
(get-value (rot2))
(get-value (pos_x3))
(get-value (pos_y3))
(get-value (rot3))
(get-value (pos_x4))
(get-value (pos_y4))
(get-value (rot4))
(get-value (pos_x5))
(get-value (pos_y5))
(get-value (rot5))
(get-value (pos_x6))
(get-value (pos_y6))
(get-value (rot6))
(get-value (pos_x7))
(get-value (pos_y7))
(get-value (rot7))
(get-value (pos_x8))
(get-value (pos_y8))
(get-value (rot8))
(get-value (pos_x9))
(get-value (pos_y9))
(get-value (rot9))
(get-value (l))
